100
100
100
98
98
97
96
94
94
93
93
91
90
90
90
89
89
87
87
86
86
86
84
84
82
82
81
81
80
79
77
77
77
76
76
75
75
73
72
72
71
70
70
70
70
67
64
62
62
59
59
59
58
58
58
55
55
54
54
53
53
53
51
51
50
50
50
49
49
48
47
46
46
45
45
44
41
41
39
39
37
37
37
37
35
34
34
34
33
33
33
32
31
29
27
25
25
24
23
22
20
20
